\ENCODING=ISO-8859-1
\Problem name: ilog.cplex

Minimize
 obj1:
Subject To
 c1:  x1 + x2 + x3 + x4 + x5 + x6  = 1
 c2:  x7 + x8 + x9 + x10 + x11 + x12  = 1
 c3:  x13 + x14 + x15 + x16 + x17 + x18  = 1
 c4:  x19 + x20 + x21 + x22 + x23 + x24  = 1
 c5:  x25 + x26 + x27 + x28 + x29 + x30  = 1
 c6:  x31 + x32 + x33 + x34 + x35 + x36  = 1
 c7:  x1 + x7 + x13 + x19 + x25 + x31  = 1
 c8:  x2 + x8 + x14 + x20 + x26 + x32  = 1
 c9:  x3 + x9 + x15 + x21 + x27 + x33  = 1
 c10: x4 + x10 + x16 + x22 + x28 + x34  = 1
 c11: x5 + x11 + x17 + x23 + x29 + x35  = 1
 c12: x6 + x12 + x18 + x24 + x30 + x36  = 1
End
